NAME : n20w120.003.347.tour
COMMENT : Length = 347
COMMENT : Found by LKH [Keld Helsgaun] Tue May  2 05:46:51 2017
TYPE : TOUR
DIMENSION : 21
TOUR_SECTION
1
6
20
14
4
5
2
9
10
17
3
15
16
8
18
12
19
11
21
13
7
-1
EOF
